Data path: /scratch/opt/lxu/CFLG/benchmarks/random_B
Instance: r_40_0.3_219.txt
Result path: /scratch/opt/lxu/CFLG/results/random_B
Solver: Gurobi
Time limit: 7200
Formulation: EF
Cover: Large
julia --project=. src/main.jl /scratch/opt/lxu/CFLG/benchmarks/random_B r_40_0.3_219.txt /scratch/opt/lxu/CFLG/results/random_B Gurobi 7200 EF Large
The latest version of Julia in the `release` channel is 1.11.6+0.x64.linux.gnu. You currently have `1.11.4+0.x64.linux.gnu` installed. Run:

  juliaup update

in your terminal shell to install Julia 1.11.6+0.x64.linux.gnu and update the `release` channel to that version.
/scratch/opt/lxu/CFLG/benchmarks/random_B Gurobi 7200.0 /scratch/opt/lxu/CFLG/results/random_B r_40_0.3_219.txt EF Large
/scratch/opt/lxu/CFLG/benchmarks/random_B/r_40_0.3_219.txt

 read graph
data loaded

problem_graph/original graph: node: 40/40 edge: 219/219 dlt: 1.2662647431939615 break_avg_len: 0.6331323715969808 break_max_len: 0.9989750688619838elapsed CPU time: 0.013255 seconds
Set parameter TokenServer to value "solice01.zib.de"
Set parameter Threads to value 1
Set parameter OutputFlag to value 1
Set parameter MIPGap to value 0.0001
Set parameter TimeLimit to value 7199.986745

 model loaded

Gurobi Optimizer version 12.0.1 build v12.0.1rc0 (linux64 - "Debian GNU/Linux 12 (bookworm)")

CPU model: Intel(R) Xeon(R) Gold 5222 CPU @ 3.80GHz, instruction set [SSE2|AVX|AVX2|AVX512]
Thread count: 8 physical cores, 16 logical processors, using up to 1 threads

Non-default parameters:
TimeLimit  7199.986745
Threads  1

Optimize a model with 31436793 rows, 10508496 columns and 83810643 nonzeros
Model fingerprint: 0xe5ef8697
Variable types: 26499 continuous, 10481997 integer (10481997 binary)
Coefficient statistics:
  Matrix range     [3e-01, 9e+00]
  Objective range  [1e+00, 1e+00]
  Bounds range     [3e-01, 1e+00]
  RHS range        [3e-06, 9e+00]
slurmstepd-htc-cmp483: error: Detected 1 oom_kill event in StepId=14734123.0. Some of the step tasks have been OOM Killed.
srun: error: htc-cmp483: task 0: Out Of Memory
